unsat
(forall ((A (_ BitVec 1))
         (B (_ BitVec 1))
         (C (_ BitVec 1))
         (D (_ BitVec 256))
         (E (_ BitVec 1))
         (F (_ BitVec 512))
         (G (_ BitVec 1))
         (H (_ BitVec 1))
         (I (_ BitVec 1))
         (J (_ BitVec 1))
         (K (_ BitVec 279))
         (L (_ BitVec 1))
         (M (_ BitVec 1))
         (N (_ BitVec 1))
         (O (_ BitVec 1))
         (P (_ BitVec 1))
         (Q (_ BitVec 1))
         (R (_ BitVec 1))
         (S (_ BitVec 1))
         (T (_ BitVec 2)))
  (! (let ((a!1 (and (or (not (= E #b1))
                         (= D
                            #x0000000000000000000000000000000000000000000000000000000000000000))
                     (= B #b1)
                     (or (= ((_ extract 282 282) F) #b0)
                         (not ((_ bit2bool 0) C)))
                     (or (= ((_ extract 283 283) F) #b0)
                         (not ((_ bit2bool 0) C))
                         (not (= E #b1)))
                     (or (= ((_ extract 255 0) F)
                            #x0000000000000000000000000000000000000000000000000000000000000000)
                         (not (= C #b1))))))
       (= (INV!slice!1 A B C D E F G H I J K L M N O P Q R S T) a!1))
     :weight 0))
